c WARNING: for repeatability, setting FPU to use double precision
d VARIABLES            20421        
d CONSTRAINTS          78628        
c ============================[ Problem Statistics ]=============================
c |                                                                             |
c |  Number of variables:         20421                                         |
c |  Number of clauses:           78628                                         |
c |  Parse time:                   0.01 s                                       |
c |                                                                             |
c ============================[ Search Statistics ]==============================
c | Conflicts |          ORIGINAL         |          LEARNT          | Progress |
c |           |    Vars  Clauses Literals |    Limit  Clauses Lit/Cl |          |
c ===============================================================================
c |       100 |   14197    60222   147180 |    22081       99     52 | 30.478 % |
c |       250 |   14197    60222   147180 |    24289      249     49 | 30.479 % |
c |       475 |   14197    60218   147172 |    26718      474     48 | 30.479 % |
c |       812 |   14197    60218   147172 |    29390      811     49 | 30.478 % |
c |      1318 |   14197    60218   147172 |    32329     1317     54 | 30.478 % |
c |      2077 |   14197    60218   147172 |    35562     2076     50 | 30.478 % |
c |      3216 |   14197    60218   147172 |    39118     3215     53 | 30.478 % |
c |      4924 |   14197    60218   147172 |    43030     4923     55 | 30.478 % |
c |      7486 |   14197    60218   147172 |    47333     7485     59 | 30.478 % |
c |     11330 |   14197    60218   147172 |    52066    11329     58 | 30.478 % |
c |     17096 |   14197    60218   147172 |    57273    17095     55 | 30.478 % |
c |     25745 |   14197    60218   147172 |    63000    25744     55 | 30.478 % |
c |     38719 |   14197    60218   147172 |    69300    38718     54 | 30.478 % |
c |     58180 |   14197    60218   147172 |    76230    58179     53 | 30.478 % |
c |     87372 |   14197    60218   147172 |    83854    22297     43 | 30.478 % |
c ===============================================================================
c restarts              : 277
c conflicts             : 106792         (6246 /sec)
c decisions             : 164789         (0.00 % random) (9638 /sec)
c propagations          : 59040008       (3453224 /sec)
c conflict literals     : 5194763        (51.60 % deleted)
d RESTARTS             277
d FAILURES             106792       
d NODES                164789       
d BACKTRACKS           164789       
d PROPAGATIONS         59040008     
d NOGOODSIZE           48.64 
d MEMORY               37.00 
d TIME                 17.0971 

s UNSATISFIABLE
